rcpsp/heur_output_log_0/heurj120.txt
encoding rcpsp/j120.sm/j12010_10.sm nv: 4129986 nc: 8356612 enctime: 70.83
encoding rcpsp/j120.sm/j12010_10.sm nv: 431011 nc: 867812 enctime: 6.07
c File: j12010_10.smnaiveor1000.wcnf
c optimal
c final solution cost: 66
c CPU time: 13.299725
s OPTIMUM FOUND

c File: j12010_10.smor1000.wcnf
c optimal
c final solution cost: 66
c CPU time: 0.832134
s OPTIMUM FOUND


rcpsp/heur_output_log_0/heurj120.txt
encoding rcpsp/j120.sm/j12010_1.sm nv: 3165652 nc: 6488057 enctime: 57.06
encoding rcpsp/j120.sm/j12010_1.sm nv: 549724 nc: 1122617 enctime: 7.00
c File: j12010_1.smnaiveor1000.wcnf
c optimal
c final solution cost: 111
c CPU time: 12.944186
s OPTIMUM FOUND

c File: j12010_1.smor1000.wcnf
c optimal
c final solution cost: 111
c CPU time: 1.663692
s OPTIMUM FOUND


rcpsp/heur_output_log_0/heurj120.txt
encoding rcpsp/j120.sm/j12010_2.sm nv: 3511512 nc: 7140655 enctime: 59.57
encoding rcpsp/j120.sm/j12010_2.sm nv: 531062 nc: 1075805 enctime: 6.83
c File: j12010_2.smnaiveor1000.wcnf
c optimal
c final solution cost: 91
c CPU time: 12.031402
s OPTIMUM FOUND

c File: j12010_2.smor1000.wcnf
c optimal
c final solution cost: 91
c CPU time: 1.327317
s OPTIMUM FOUND


rcpsp/heur_output_log_0/heurj120.txt
encoding rcpsp/j120.sm/j12010_3.sm nv: 3265200 nc: 6736578 enctime: 60.70
encoding rcpsp/j120.sm/j12010_3.sm nv: 489780 nc: 1005810 enctime: 6.44
c File: j12010_3.smnaiveor1000.wcnf
c optimal
c final solution cost: 99
c CPU time: 27.297933
s OPTIMUM FOUND

c File: j12010_3.smor1000.wcnf
c optimal
c final solution cost: 99
c CPU time: 1.620710
s OPTIMUM FOUND


rcpsp/heur_output_log_0/heurj120.txt
encoding rcpsp/j120.sm/j12010_4.sm nv: 3155200 nc: 6482770 enctime: 57.70
encoding rcpsp/j120.sm/j12010_4.sm nv: 487200 nc: 996695 enctime: 4.87
c File: j12010_4.smnaiveor1000.wcnf
c optimal
c final solution cost: 95
c CPU time: 11.750559
s OPTIMUM FOUND

c File: j12010_4.smor1000.wcnf
c optimal
c final solution cost: 95
c CPU time: 1.427341
s OPTIMUM FOUND


rcpsp/heur_output_log_0/heurj120.txt
encoding rcpsp/j120.sm/j12010_5.sm nv: 3019914 nc: 6172622 enctime: 52.27
encoding rcpsp/j120.sm/j12010_5.sm nv: 496230 nc: 1010444 enctime: 6.26
c File: j12010_5.smnaiveor1000.wcnf
c optimal
c final solution cost: 97
c CPU time: 10.756891
s OPTIMUM FOUND

c File: j12010_5.smor1000.wcnf
c optimal
c final solution cost: 97
c CPU time: 1.379403
s OPTIMUM FOUND


rcpsp/heur_output_log_0/heurj120.txt
encoding rcpsp/j120.sm/j12010_6.sm nv: 3414048 nc: 6943121 enctime: 58.97
encoding rcpsp/j120.sm/j12010_6.sm nv: 499224 nc: 1011389 enctime: 6.54
c File: j12010_6.smnaiveor1000.wcnf
c optimal
c final solution cost: 92
c CPU time: 10.736134
s OPTIMUM FOUND

c File: j12010_6.smor1000.wcnf
c optimal
c final solution cost: 92
c CPU time: 0.943994
s OPTIMUM FOUND


rcpsp/heur_output_log_0/heurj120.txt
encoding rcpsp/j120.sm/j12010_7.sm nv: 3545389 nc: 7290900 enctime: 63.95
encoding rcpsp/j120.sm/j12010_7.sm nv: 419135 nc: 857068 enctime: 5.80
c File: j12010_7.smnaiveor1000.wcnf
c optimal
c final solution cost: 79
c CPU time: 44.313920
s OPTIMUM FOUND

c File: j12010_7.smor1000.wcnf
c optimal
c final solution cost: 79
c CPU time: 3.253718
s OPTIMUM FOUND


rcpsp/heur_output_log_0/heurj120.txt
encoding rcpsp/j120.sm/j12010_8.sm nv: 2872000 nc: 5963984 enctime: 53.80
encoding rcpsp/j120.sm/j12010_8.sm nv: 524000 nc: 1083666 enctime: 6.64
c File: j12010_8.smnaiveor1000.wcnf
c optimal
c final solution cost: 114
c CPU time: 13.111386
s OPTIMUM FOUND

c File: j12010_8.smor1000.wcnf
c optimal
c final solution cost: 114
c CPU time: 1.622034
s OPTIMUM FOUND


rcpsp/heur_output_log_0/heurj120.txt
encoding rcpsp/j120.sm/j12010_9.sm nv: 3924848 nc: 7969614 enctime: 66.46
encoding rcpsp/j120.sm/j12010_9.sm nv: 466674 nc: 943446 enctime: 4.67
c File: j12010_9.smnaiveor1000.wcnf
c optimal
c final solution cost: 77
c CPU time: 12.707936
s OPTIMUM FOUND

c File: j12010_9.smor1000.wcnf
c optimal
c final solution cost: 77
c CPU time: 0.951276
s OPTIMUM FOUND


rcpsp/heur_output_log_0/heurj120.txt
encoding rcpsp/j120.sm/j1201_10.sm nv: 592184 nc: 1359522 enctime: 18.93
encoding rcpsp/j120.sm/j1201_10.sm nv: 116188 nc: 263258 enctime: 1.86
c File: j1201_10.smnaiveor1000.wcnf
c optimal
c final solution cost: 108
c CPU time: 42.880569
s OPTIMUM FOUND

c File: j1201_10.smor1000.wcnf
c optimal
c final solution cost: 108
c CPU time: 13.790243
s OPTIMUM FOUND


rcpsp/heur_output_log_0/heurj120.txt
encoding rcpsp/j120.sm/j12011_10.sm nv: 2672423 nc: 5531114 enctime: 49.43
encoding rcpsp/j120.sm/j12011_10.sm nv: 869245 nc: 1795864 enctime: 10.50
c File: j12011_10.smnaiveor1000.wcnf
c timeout
c final solution cost: 219
c CPU time: 66.963341
s UNKNOWN

c File: j12011_10.smor1000.wcnf
c timeout
c final solution cost: 204
c CPU time: 61.586523
s UNKNOWN


rcpsp/heur_output_log_0/heurj120.txt
encoding rcpsp/j120.sm/j12011_1.sm nv: 2510478 nc: 5181716 enctime: 44.65
encoding rcpsp/j120.sm/j12011_1.sm nv: 789234 nc: 1625954 enctime: 10.67
c File: j12011_1.smnaiveor1000.wcnf
c timeout
c final solution cost: 192
c CPU time: 66.469231
s UNKNOWN

c File: j12011_1.smor1000.wcnf
c timeout
c CPU time: 61.187202
s UNKNOWN


rcpsp/heur_output_log_0/heurj120.txt
encoding rcpsp/j120.sm/j12011_2.sm nv: 2314704 nc: 4748515 enctime: 40.22
encoding rcpsp/j120.sm/j12011_2.sm nv: 752976 nc: 1541955 enctime: 10.01
c File: j12011_2.smnaiveor1000.wcnf
c timeout
c final solution cost: 179
c CPU time: 65.601849
s UNKNOWN

c File: j12011_2.smor1000.wcnf
c timeout
c final solution cost: 174
c CPU time: 61.304230
s UNKNOWN


rcpsp/heur_output_log_0/heurj120.txt
encoding rcpsp/j120.sm/j12011_3.sm nv: 2407912 nc: 5021036 enctime: 45.46
encoding rcpsp/j120.sm/j12011_3.sm nv: 869128 nc: 1809116 enctime: 11.94
c File: j12011_3.smnaiveor1000.wcnf
c timeout
c final solution cost: 245
c CPU time: 66.605824
s UNKNOWN

c File: j12011_3.smor1000.wcnf
c timeout
c CPU time: 61.409323
s UNKNOWN


rcpsp/heur_output_log_0/heurj120.txt
encoding rcpsp/j120.sm/j12011_4.sm nv: 2485909 nc: 5166956 enctime: 46.26
encoding rcpsp/j120.sm/j12011_4.sm nv: 872118 nc: 1809474 enctime: 11.97
c File: j12011_4.smnaiveor1000.wcnf
c timeout
c final solution cost: 225
c CPU time: 66.580454
s UNKNOWN

c File: j12011_4.smor1000.wcnf
c timeout
c CPU time: 61.390086
s UNKNOWN


rcpsp/heur_output_log_0/heurj120.txt
encoding rcpsp/j120.sm/j12011_5.sm nv: 2418372 nc: 5047173 enctime: 46.54
encoding rcpsp/j120.sm/j12011_5.sm nv: 865224 nc: 1802469 enctime: 10.62
c File: j12011_5.smnaiveor1000.wcnf
c timeout
c final solution cost: 250
c CPU time: 67.039336
s UNKNOWN

c File: j12011_5.smor1000.wcnf
c timeout
c CPU time: 61.417449
s UNKNOWN


rcpsp/heur_output_log_0/heurj120.txt
encoding rcpsp/j120.sm/j12011_6.sm nv: 2476275 nc: 5166652 enctime: 47.40
encoding rcpsp/j120.sm/j12011_6.sm nv: 918210 nc: 1912602 enctime: 12.71
c File: j12011_6.smnaiveor1000.wcnf
c timeout
c final solution cost: 417
c CPU time: 66.973027
s UNKNOWN

c File: j12011_6.smor1000.wcnf
c timeout
c final solution cost: 243
c CPU time: 61.756293
s UNKNOWN


rcpsp/heur_output_log_0/heurj120.txt
encoding rcpsp/j120.sm/j12011_7.sm nv: 2193558 nc: 4506564 enctime: 39.29
encoding rcpsp/j120.sm/j12011_7.sm nv: 738724 nc: 1515064 enctime: 8.88
c File: j12011_7.smnaiveor1000.wcnf
c timeout
c final solution cost: 268
c CPU time: 65.676488
s UNKNOWN

c File: j12011_7.smor1000.wcnf
c timeout
c final solution cost: 189
c CPU time: 61.355092
s UNKNOWN


rcpsp/heur_output_log_0/heurj120.txt
encoding rcpsp/j120.sm/j12011_8.sm nv: 2820552 nc: 5816420 enctime: 49.79
encoding rcpsp/j120.sm/j12011_8.sm nv: 817614 nc: 1682756 enctime: 11.24
c File: j12011_8.smnaiveor1000.wcnf
c timeout
c final solution cost: 185
c CPU time: 67.124622
s UNKNOWN

c File: j12011_8.smor1000.wcnf
c timeout
c CPU time: 61.190627
s UNKNOWN


rcpsp/heur_output_log_0/heurj120.txt
encoding rcpsp/j120.sm/j12011_9.sm nv: 2846514 nc: 5865596 enctime: 49.70
encoding rcpsp/j120.sm/j12011_9.sm nv: 859656 nc: 1768211 enctime: 11.49
c File: j12011_9.smnaiveor1000.wcnf
c timeout
c final solution cost: 341
c CPU time: 67.522534
s UNKNOWN

c File: j12011_9.smor1000.wcnf
c timeout
c CPU time: 61.256583
s UNKNOWN


rcpsp/heur_output_log_0/heurj120.txt
encoding rcpsp/j120.sm/j1201_1.sm nv: 631928 nc: 1481241 enctime: 20.85
encoding rcpsp/j120.sm/j1201_1.sm nv: 119196 nc: 275291 enctime: 1.94
c File: j1201_1.smnaiveor1000.wcnf
c timeout
c final solution cost: 105
c CPU time: 64.323151
s UNKNOWN

c File: j1201_1.smor1000.wcnf
c timeout
c final solution cost: 109
c CPU time: 60.260458
s UNKNOWN


rcpsp/heur_output_log_0/heurj120.txt
encoding rcpsp/j120.sm/j12012_10.sm nv: 4006515 nc: 8222045 enctime: 69.78
encoding rcpsp/j120.sm/j12012_10.sm nv: 909280 nc: 1861895 enctime: 11.16
c File: j12012_10.smnaiveor1000.wcnf
c timeout
c final solution cost: 166
c CPU time: 69.349262
s UNKNOWN

c File: j12012_10.smor1000.wcnf
c timeout
c CPU time: 61.203005
s UNKNOWN


rcpsp/heur_output_log_0/heurj120.txt
encoding rcpsp/j120.sm/j12012_1.sm nv: 2932384 nc: 5995933 enctime: 47.99
encoding rcpsp/j120.sm/j12012_1.sm nv: 786149 nc: 1604228 enctime: 10.36
c File: j12012_1.smnaiveor1000.wcnf
c timeout
c final solution cost: 152
c CPU time: 66.603633
s UNKNOWN

c File: j12012_1.smor1000.wcnf
c timeout
c final solution cost: 146
c CPU time: 61.299082
s UNKNOWN


rcpsp/heur_output_log_0/heurj120.txt
encoding rcpsp/j120.sm/j12012_2.sm nv: 3843988 nc: 7822305 enctime: 61.62
encoding rcpsp/j120.sm/j12012_2.sm nv: 807972 nc: 1640657 enctime: 9.64
c File: j12012_2.smnaiveor1000.wcnf
c timeout
c final solution cost: 134
c CPU time: 68.108311
s UNKNOWN

c File: j12012_2.smor1000.wcnf
c timeout
c CPU time: 61.040697
s UNKNOWN


rcpsp/heur_output_log_0/heurj120.txt
encoding rcpsp/j120.sm/j12012_3.sm nv: 3431808 nc: 7022395 enctime: 56.07
encoding rcpsp/j120.sm/j12012_3.sm nv: 842064 nc: 1719679 enctime: 11.25
c File: j12012_3.smnaiveor1000.wcnf
c timeout
c final solution cost: 150
c CPU time: 67.708973
s UNKNOWN

c File: j12012_3.smor1000.wcnf
c timeout
c final solution cost: 150
c CPU time: 61.360060
s UNKNOWN


rcpsp/heur_output_log_0/heurj120.txt
encoding rcpsp/j120.sm/j12012_4.sm nv: 3429594 nc: 7006570 enctime: 55.62
encoding rcpsp/j120.sm/j12012_4.sm nv: 774774 nc: 1579330 enctime: 10.62
c File: j12012_4.smnaiveor1000.wcnf
c timeout
c final solution cost: 136
c CPU time: 67.474918
s UNKNOWN

c File: j12012_4.smor1000.wcnf
c timeout
c CPU time: 61.027794
s UNKNOWN


rcpsp/heur_output_log_0/heurj120.txt
encoding rcpsp/j120.sm/j12012_5.sm nv: 3537837 nc: 7320131 enctime: 62.32
encoding rcpsp/j120.sm/j12012_5.sm nv: 888099 nc: 1833377 enctime: 10.60
c File: j12012_5.smnaiveor1000.wcnf
c timeout
c final solution cost: 364
c CPU time: 69.213614
s UNKNOWN

c File: j12012_5.smor1000.wcnf
c timeout
c CPU time: 61.237593
s UNKNOWN


rcpsp/heur_output_log_0/heurj120.txt
encoding rcpsp/j120.sm/j12012_6.sm nv: 3769155 nc: 7705123 enctime: 61.81
encoding rcpsp/j120.sm/j12012_6.sm nv: 812955 nc: 1658043 enctime: 11.31
c File: j12012_6.smnaiveor1000.wcnf
c timeout
c final solution cost: 195
c CPU time: 68.299820
s UNKNOWN

c File: j12012_6.smor1000.wcnf
c timeout
c final solution cost: 138
c CPU time: 61.308537
s UNKNOWN


rcpsp/heur_output_log_0/heurj120.txt
encoding rcpsp/j120.sm/j12012_7.sm nv: 4223626 nc: 8630397 enctime: 69.20
encoding rcpsp/j120.sm/j12012_7.sm nv: 811283 nc: 1653635 enctime: 9.79
c File: j12012_7.smnaiveor1000.wcnf
c timeout
c final solution cost: 314
c CPU time: 69.802687
s UNKNOWN

c File: j12012_7.smor1000.wcnf
c timeout
c CPU time: 61.054239
s UNKNOWN


rcpsp/heur_output_log_0/heurj120.txt
encoding rcpsp/j120.sm/j12012_8.sm nv: 4399440 nc: 8987627 enctime: 73.76
encoding rcpsp/j120.sm/j12012_8.sm nv: 848008 nc: 1728246 enctime: 10.94
c File: j12012_8.smnaiveor1000.wcnf
c timeout
c final solution cost: 135
c CPU time: 69.878690
s UNKNOWN

c File: j12012_8.smor1000.wcnf
c timeout
c CPU time: 61.144901
s UNKNOWN


rcpsp/heur_output_log_0/heurj120.txt
encoding rcpsp/j120.sm/j12012_9.sm nv: 3724476 nc: 7566452 enctime: 64.50
encoding rcpsp/j120.sm/j12012_9.sm nv: 719082 nc: 1457375 enctime: 9.29
c File: j12012_9.smnaiveor1000.wcnf
c timeout
c final solution cost: 115
c CPU time: 67.919287
s UNKNOWN

c File: j12012_9.smor1000.wcnf
c timeout
c CPU time: 60.980780
s UNKNOWN


rcpsp/heur_output_log_0/heurj120.txt
encoding rcpsp/j120.sm/j1201_2.sm nv: 610850 nc: 1410070 enctime: 20.42
encoding rcpsp/j120.sm/j1201_2.sm nv: 118750 nc: 270470 enctime: 2.01
c File: j1201_2.smnaiveor1000.wcnf
c timeout
c final solution cost: 113
c CPU time: 63.821195
s UNKNOWN

c File: j1201_2.smor1000.wcnf
c timeout
c final solution cost: 111
c CPU time: 60.273555
s UNKNOWN


rcpsp/heur_output_log_0/heurj120.txt
encoding rcpsp/j120.sm/j12013_10.sm nv: 5502092 nc: 11172832 enctime: 92.61
encoding rcpsp/j120.sm/j12013_10.sm nv: 803051 nc: 1626409 enctime: 10.92
c File: j12013_10.smnaiveor1000.wcnf
c timeout
c final solution cost: 104
c CPU time: 71.211144
s UNKNOWN

c File: j12013_10.smor1000.wcnf
c timeout
c CPU time: 61.055073
s UNKNOWN


rcpsp/heur_output_log_0/heurj120.txt
encoding rcpsp/j120.sm/j12013_1.sm nv: 4439227 nc: 9063514 enctime: 76.44
encoding rcpsp/j120.sm/j12013_1.sm nv: 902020 nc: 1837576 enctime: 13.56
c File: j12013_1.smnaiveor1000.wcnf
c timeout
c final solution cost: 143
c CPU time: 70.050134
s UNKNOWN

c File: j12013_1.smor1000.wcnf
c timeout
c CPU time: 61.207455
s UNKNOWN


rcpsp/heur_output_log_0/heurj120.txt
encoding rcpsp/j120.sm/j12013_2.sm nv: 5654676 nc: 11423168 enctime: 90.39
encoding rcpsp/j120.sm/j12013_2.sm nv: 835754 nc: 1684512 enctime: 11.13
c File: j12013_2.smnaiveor1000.wcnf
c timeout
c final solution cost: 94
c CPU time: 70.949198
s UNKNOWN

c File: j12013_2.smor1000.wcnf
c timeout
c CPU time: 61.072593
s UNKNOWN


rcpsp/heur_output_log_0/heurj120.txt
encoding rcpsp/j120.sm/j12013_3.sm nv: 4500287 nc: 9180496 enctime: 76.74
encoding rcpsp/j120.sm/j12013_3.sm nv: 863159 nc: 1756648 enctime: 12.71
c File: j12013_3.smnaiveor1000.wcnf
c timeout
c final solution cost: 127
c CPU time: 69.862187
s UNKNOWN

c File: j12013_3.smor1000.wcnf
c timeout
c CPU time: 61.158769
s UNKNOWN


rcpsp/heur_output_log_0/heurj120.txt
encoding rcpsp/j120.sm/j12013_4.sm nv: 4717013 nc: 9604176 enctime: 81.62
encoding rcpsp/j120.sm/j12013_4.sm nv: 847534 nc: 1721512 enctime: 11.13
c File: j12013_4.smnaiveor1000.wcnf
c timeout
c final solution cost: 123
c CPU time: 70.269210
s UNKNOWN

c File: j12013_4.smor1000.wcnf
c timeout
c CPU time: 61.124299
s UNKNOWN


rcpsp/heur_output_log_0/heurj120.txt
encoding rcpsp/j120.sm/j12013_5.sm nv: 5463843 nc: 11058520 enctime: 89.81
encoding rcpsp/j120.sm/j12013_5.sm nv: 864479 nc: 1745808 enctime: 11.48
c File: j12013_5.smnaiveor1000.wcnf
c timeout
c final solution cost: 95
c CPU time: 71.070989
s UNKNOWN

c File: j12013_5.smor1000.wcnf
c timeout
c final solution cost: 96
c CPU time: 61.338781
s UNKNOWN


rcpsp/heur_output_log_0/heurj120.txt
encoding rcpsp/j120.sm/j12013_6.sm nv: 4497350 nc: 9121127 enctime: 74.44
encoding rcpsp/j120.sm/j12013_6.sm nv: 807950 nc: 1634999 enctime: 10.33
c File: j12013_6.smnaiveor1000.wcnf
c timeout
c final solution cost: 105
c CPU time: 69.264546
s UNKNOWN

c File: j12013_6.smor1000.wcnf
c timeout
c final solution cost: 105
c CPU time: 61.291882
s UNKNOWN


